30
5
90127
0
0
54 66 42 45 60
1
0
54 31 57 38 48
2
0
53 76 35 40 68
3
0
55 59 43 55 45
4
0
34 53 65 43 48
5
0
34 49 47 55 50
6
0
54 44 40 37 47
7
0
68 72 44 48 51
8
0
41 48 27 60 28
9
0
51 52 51 48 59
10
0
41 47 55 48 55
11
0
51 49 49 37 46
12
0
34 54 43 38 43
13
0
37 52 42 35 65
14
0
51 46 36 50 42
15
0
55 56 57 45 42
16
0
64 47 32 48 55
17
0
48 65 32 56 42
18
0
61 58 61 42 50
19
0
39 52 46 33 44
20
0
65 59 49 57 46
21
0
45 48 59 53 44
22
0
50 43 52 63 43
23
0
56 45 49 40 75
24
0
32 53 45 54 44
25
0
65 58 40 65 46
26
0
60 49 29 55 73
27
0
49 71 40 67 45
28
0
65 53 43 59 49
29
0
44 53 39 57 63
